0 3798
2401 3713
4802 3649
7203 3588
9604 3537
12005 3489
14406 3434
16807 3400
19208 3358
21609 3320
24010 3302
26411 3264
28812 3229
31213 3222
33614 3211
36015 3203
38416 3194
40817 3187
43218 3172
45619 3165
48020 3154
50421 3147
52822 3141
55223 3131
57624 3125
60025 3117
62426 3116
64827 3110
67228 3105
69629 3102
72030 3095
74431 3090
76832 3088
79233 3086
